% demand
num_movements = 52;
loading_factor = [1100, 2000, 1250, 1700, 1050, 1700, 900, 1400, 1950, 800, 1500, 950, 1800, 900, 1100, 800, 1250, 1650, 1050, 800, 1400, 1050, 1900, 2000, 1250, 1400, 1850, 1750, 1000, 1050, 1850, 850, 800, 1950, 1400, 1400, 850, 1600, 900, 2000, 1200, 1100, 1400, 1150, 1950, 1600, 1350, 1100, 1000, 1500, 900, 1300];
pickup_time = [0, 0, 0, 1, 1, 1, 1, 1, 1, 1, 1, 3, 3, 3, 3, 3, 3, 3, 3, 5, 5, 5, 5, 5, 5, 6, 6, 6, 6, 7, 7, 7, 7, 8, 8, 8, 9, 9, 9, 9, 9, 9, 9, 9, 10, 10, 10, 10, 10, 10, 10, 10];
delivery_time = [1, 1, 1, 2, 2, 2, 3, 3, 2, 2, 6, 4, 5, 5, 9, 5, 5, 5, 5, 6, 6, 6, 7, 9, 6, 8, 7, 8, 7, 9, 8, 9, 10, 9, 9, 9, 10, 10, 10, 10, 10, 10, 10, 10, 11, 11, 11, 11, 11, 11, 11, 11];

% transporter definition
total_capacity = 11000;
num_decks = 4;
capacity = [3000, 3000, 1000, 4000];

% ways out of decks
num_ways_out = 2;
paths_out = array3d(decks, ways_out, decks, [
% ways out of deck d1
2, 4, 0, 0, 3, 4, 0, 0, 

% ways out of deck d2
4, 0, 0, 0, 0, 0, 0, 0,	

% ways out of deck d3
4, 0, 0, 0, 0, 0, 0, 0,	

% ways out of deck d4
0, 0, 0, 0,	0, 0, 0, 0,	

]);

